nNurses = 157;
nHours = 28;
minHours = 10;
maxHours = 19;
maxConsec = 12;
maxPresence = 12;
demand = [22, 17, 15, 17, 20, 19, 18, 22, 22, 21, 23, 28, 33, 30, 26, 22, 18, 17, 22, 23, 27, 25, 25, 27, 22, 18, 17, 15];
